(set-info :status unsat)
(declare-const symbol_55 (_ BitVec 32))
(declare-const symbol_32 (_ BitVec 32))
(declare-const symbol_68 (_ BitVec 32))
(declare-const symbol_17 (_ BitVec 32))
(declare-const symbol_54 (_ BitVec 32))
(declare-const symbol_45 (_ BitVec 32))
(declare-const symbol_49 (_ BitVec 32))
(declare-const symbol_63 (_ BitVec 32))
(declare-const symbol_10 (_ BitVec 32))
(declare-const symbol_4 (_ BitVec 32))
(declare-const symbol_26 (_ BitVec 32))
(declare-const symbol_28 (_ BitVec 32))
(declare-const symbol_0 (_ BitVec 32))
(declare-const symbol_9 (_ BitVec 32))
(declare-const symbol_65 (_ BitVec 32))
(declare-const symbol_36 (_ BitVec 32))
(declare-const symbol_47 (_ BitVec 32))
(declare-const symbol_52 (_ BitVec 32))
(declare-const symbol_16 (_ BitVec 32))
(declare-const symbol_61 (_ BitVec 32))
(declare-const symbol_34 (_ BitVec 32))
(declare-const symbol_14 (_ BitVec 32))
(declare-const symbol_24 (_ BitVec 32))
(declare-const symbol_57 (_ BitVec 32))
(declare-const symbol_22 (_ BitVec 32))
(declare-const symbol_67 (_ BitVec 32))
(declare-const symbol_41 (_ BitVec 32))
(declare-const symbol_30 (_ BitVec 32))
(declare-const symbol_37 (_ BitVec 32))
(declare-const symbol_19 (_ BitVec 32))
(declare-const symbol_43 (_ BitVec 32))
(declare-const symbol_2 (_ BitVec 32))
(declare-const symbol_51 (_ BitVec 32))
(declare-const symbol_20 (_ BitVec 32))
(declare-const symbol_7 (_ BitVec 32))
(declare-const symbol_59 (_ BitVec 32))
(declare-const symbol_39 (_ BitVec 32))
(declare-const symbol_12 (_ BitVec 32))
(declare-const symbol_70 (_ BitVec 32))
(declare-const symbol_5 (_ BitVec 32))
(assert (= symbol_70 (_ bv3 32)))
(assert (not (not (= symbol_70 (_ bv5 32)))))
(assert (not (not (= symbol_68 (_ bv5 32)))))
(assert (not (not (= symbol_67 (_ bv5 32)))))
(assert (not (not (= symbol_65 (_ bv5 32)))))
(assert (not (not (= symbol_63 (_ bv5 32)))))
(assert (not (not (= symbol_61 (_ bv5 32)))))
(assert (not (not (= symbol_59 (_ bv5 32)))))
(assert (not (not (= symbol_57 (_ bv5 32)))))
(assert (not (not (= symbol_55 (_ bv5 32)))))
(assert (not (not (= symbol_54 (_ bv5 32)))))
(assert (not (not (= symbol_52 (_ bv5 32)))))
(assert (not (not (= symbol_51 (_ bv5 32)))))
(assert (not (not (= symbol_49 (_ bv5 32)))))
(assert (not (not (= symbol_47 (_ bv5 32)))))
(assert (not (not (= symbol_45 (_ bv5 32)))))
(assert (not (not (= symbol_43 (_ bv5 32)))))
(assert (not (not (= symbol_41 (_ bv5 32)))))
(assert (not (not (= symbol_39 (_ bv5 32)))))
(assert (not (not (= symbol_37 (_ bv5 32)))))
(assert (not (not (= symbol_36 (_ bv5 32)))))
(assert (not (not (= symbol_34 (_ bv5 32)))))
(assert (not (not (= symbol_32 (_ bv5 32)))))
(assert (not (not (= symbol_30 (_ bv5 32)))))
(assert (not (not (= symbol_28 (_ bv5 32)))))
(assert (not (not (= symbol_26 (_ bv5 32)))))
(assert (not (not (= symbol_24 (_ bv5 32)))))
(assert (not (not (= symbol_22 (_ bv5 32)))))
(assert (not (not (= symbol_20 (_ bv5 32)))))
(assert (not (not (= symbol_19 (_ bv5 32)))))
(assert (not (not (= symbol_17 (_ bv5 32)))))
(assert (not (not (= symbol_16 (_ bv5 32)))))
(assert (not (not (= symbol_14 (_ bv5 32)))))
(assert (not (not (= symbol_12 (_ bv5 32)))))
(assert (not (not (= symbol_10 (_ bv5 32)))))
(assert (not (not (= symbol_9 (_ bv5 32)))))
(assert (not (not (= symbol_7 (_ bv5 32)))))
(assert (not (not (= symbol_5 (_ bv5 32)))))
(assert (not (not (= symbol_4 (_ bv5 32)))))
(assert (not (not (= symbol_2 (_ bv5 32)))))
(assert (not (not (= symbol_0 (_ bv1 32)))))
(assert (not (= symbol_0 (_ bv5 32))))
(check-sat)